71 50 20 9 77 99 96 93 98 92 95 91 58 85 8 7 37 87 83 88 81 74 80 72 59 84 69 66 63 54 14 28 18 68 13 29 24 79 3 15 44 61 42 40 64 51 6 39 36 31 22 60 5 2 70 47 1 33 19 46 45 25 12 30 34 55 4 21 65 53 26 11 52 41 38 49 94 90 48 76 35 27 23 56 32 57 62 43 16 75 89 73 10 97 17 67 82 86 0 78 

